Route 1: 0 45 93 17 83 15 80 62 47 4 10 34 89 0
Route 2: 0 82 71 23 59 97 60 51 70 0
Route 3: 0 46 85 9 95 11 58 21 33 61 20 6 86 0
Route 4: 0 55 8 48 25 37 24 52 0
Route 5: 0 41 76 84 26 32 73 2 0
Route 6: 0 79 99 64 49 88 44 36 0
Route 7: 0 72 65 87 91 54 39 18 40 63 0
Route 8: 0 56 96 35 90 38 43 42 31 1 67 66 29 0
Route 9: 0 57 100 53 12 13 7 3 81 0
Route 10: 0 14 22 78 28 68 16 0
Route 11: 0 98 94 50 92 77 27 69 74 19 30 0
Route 12: 0 75 5 0
